p cnf 890 2041
-343 136 0
-343 34 0
343 -136 -34 0
-155 -343 0
155 343 0
-357 190 0
-357 35 0
357 -190 -35 0
-204 -357 0
204 357 0
-400 295 0
-400 13 0
400 -295 -13 0
-302 -400 0
302 400 0
-360 202 0
-360 14 0
360 -202 -14 0
-214 -360 0
214 360 0
-382 253 0
-382 15 0
382 -253 -15 0
-261 -382 0
261 382 0
-358 192 0
-358 16 0
358 -192 -16 0
-206 -358 0
206 358 0
-346 141 0
-346 17 0
346 -141 -17 0
-182 -180 0
182 180 0
-105 -78 0
105 78 0
-111 -85 0
111 85 0
-107 -80 0
107 80 0
-245 -244 0
245 244 0
-96 -69 0
96 69 0
-112 -85 0
112 85 0
-97 -70 0
97 70 0
-184 -183 0
184 183 0
-98 -71 0
98 71 0
-113 -85 0
113 85 0
-100 -73 0
100 73 0
-287 -286 0
287 286 0
-102 -75 0
102 75 0
-232 -228 0
232 228 0
-324 -321 0
324 321 0
-312 -306 0
312 306 0
-315 -309 0
315 309 0
-316 -310 0
316 310 0
-317 -311 0
317 311 0
-305 -304 0
305 304 0
-266 -264 0
266 264 0
-263 -260 0
263 260 0
-220 -216 0
220 216 0
-277 -274 0
277 274 0
-272 -269 0
272 269 0
-160 -152 0
160 152 0
-229 -225 0
229 225 0
-161 -153 0
161 153 0
-276 -273 0
276 273 0
-235 -231 0
235 231 0
-234 -230 0
234 230 0
-323 -320 0
323 320 0
-322 -319 0
322 319 0
-134 -123 0
134 123 0
-189 -185 0
189 185 0
-294 -290 0
294 290 0
-201 -195 0
201 195 0
-252 -248 0
252 248 0
-191 -187 0
191 187 0
-135 -124 0
135 124 0
-281 -280 0
281 280 0
-283 -282 0
283 282 0
-173 -170 0
173 170 0
-177 -175 0
177 175 0
-239 -238 0
239 238 0
-241 -240 0
241 240 0
-174 -172 0
174 172 0
-178 -176 0
178 176 0
-250 -246 0
250 246 0
-137 -126 0
137 126 0
-199 -193 0
199 193 0
-139 -128 0
139 128 0
-292 -288 0
292 288 0
433 57 0
433 286 0
-433 -57 -286 0
-104 -77 0
104 77 0
431 57 0
431 183 0
-431 -57 -183 0
-106 -79 0
106 79 0
432 57 0
432 244 0
-432 -57 -244 0
-108 -81 0
108 81 0
430 57 0
430 180 0
-430 -57 -180 0
-109 -82 0
109 82 0
-114 -85 0
114 85 0
-110 -83 0
110 83 0
-115 -85 0
115 85 0
-99 -72 0
99 72 0
-116 -85 0
116 85 0
-101 -74 0
101 74 0
-117 -85 0
117 85 0
-103 -76 0
103 76 0
-219 -215 0
219 215 0
-121 -92 0
121 92 0
-397 56 0
-397 294 0
397 -56 -294 0
-368 56 0
-368 213 0
368 -56 -213 0
-379 56 0
-379 252 0
379 -56 -252 0
-362 56 0
-362 205 0
362 -56 -205 0
-390 262 0
-390 162 0
390 -262 -162 0
-335 57 0
-335 120 0
335 -57 -120 0
-336 57 0
-336 120 0
336 -57 -120 0
-337 57 0
-337 120 0
337 -57 -120 0
-338 57 0
-338 120 0
338 -57 -120 0
-391 262 0
-391 154 0
391 -262 -154 0
-371 217 0
-371 163 0
371 -217 -163 0
-372 217 0
-372 156 0
372 -217 -156 0
-413 303 0
-413 164 0
413 -303 -164 0
-414 303 0
-414 158 0
414 -303 -158 0
-411 158 0
-411 122 0
-411 405 0
411 -158 -122 -405 0
-398 294 0
-398 88 0
398 -294 -88 0
-369 213 0
-369 86 0
369 -213 -86 0
-380 252 0
-380 87 0
380 -252 -87 0
-363 84 0
-363 205 0
363 -84 -205 0
-392 243 0
-392 262 0
392 -243 -262 0
-339 57 0
-339 118 0
-339 119 0
-339 122 0
339 -57 -118 -119 -122 0
-340 57 0
-340 118 0
-340 90 0
-340 122 0
340 -57 -118 -90 -122 0
-366 56 0
-366 38 0
-366 210 0
366 -56 -38 -210 0
-364 56 0
-364 205 0
364 -56 -205 0
-373 181 0
-373 217 0
373 -181 -217 0
-415 285 0
-415 303 0
415 -285 -303 0
-389 154 0
-389 122 0
-389 387 0
389 -154 -122 -387 0
-406 88 0
-406 299 0
-406 158 0
-406 383 0
406 -88 -299 -158 -383 0
-408 86 0
-408 211 0
-408 156 0
-408 402 0
408 -86 -211 -156 -402 0
-409 87 0
-409 257 0
-409 154 0
-409 403 0
409 -87 -257 -154 -403 0
-410 256 0
-410 203 0
-410 404 0
410 -256 -203 -404 0
-384 256 0
-384 210 0
-384 374 0
384 -256 -210 -374 0
-385 56 0
-385 213 0
-385 256 0
-385 210 0
385 -56 -213 -256 -210 0
-341 57 0
-341 89 0
-341 119 0
-341 122 0
341 -57 -89 -119 -122 0
-342 57 0
-342 89 0
-342 90 0
-342 122 0
342 -57 -89 -90 -122 0
-370 156 0
-370 122 0
-370 367 0
370 -156 -122 -367 0
-361 89 0
-361 90 0
-361 203 0
-361 122 0
361 -89 -90 -203 -122 0
-412 407 0
-412 388 0
412 -407 -388 0
429 -370 0
429 -361 0
429 -412 0
429 -427 0
-429 370 361 412 427 0
423 -397 0
423 -398 0
423 -406 0
-423 397 398 406 0
424 -368 0
424 -369 0
424 -408 0
-424 368 369 408 0
425 -379 0
425 -380 0
425 -409 0
-425 379 380 409 0
426 -362 0
426 -363 0
426 -410 0
-426 362 363 410 0
-401 256 0
-401 210 0
-401 399 0
401 -256 -210 -399 0
-386 56 0
-386 213 0
-386 256 0
-386 210 0
386 -56 -213 -256 -210 0
-381 56 0
-381 252 0
-381 210 0
381 -56 -252 -210 0
-365 56 0
-365 205 0
365 -56 -205 0
422 -390 0
422 -392 0
-422 390 392 0
421 -335 0
421 -339 0
421 -384 0
-421 335 339 384 0
417 -336 0
417 -340 0
417 -37 0
-417 336 340 37 0
419 -337 0
419 -366 0
419 -341 0
-419 337 366 341 0
418 -338 0
418 -39 0
418 -342 0
-418 338 39 342 0
-268 -267 0
268 267 0
420 -371 0
420 -373 0
-420 371 373 0
-223 -222 0
223 222 0
428 -413 0
428 -415 0
-428 413 415 0
-308 -307 0
308 307 0
-327 91 0
-327 92 0
-327 93 0
327 -91 -92 -93 0
-353 182 0
-353 105 0
353 -182 -105 0
-190 -186 0
190 186 0
-326 -325 0
326 325 0
-395 433 0
-395 104 0
395 -433 -104 0
-295 -291 0
295 291 0
-356 431 0
-356 106 0
356 -431 -106 0
-202 -196 0
202 196 0
-377 432 0
-377 108 0
377 -432 -108 0
-253 -249 0
253 249 0
-354 430 0
-354 109 0
354 -430 -109 0
-192 -188 0
192 188 0
-331 114 0
-331 110 0
331 -114 -110 0
-141 -130 0
141 130 0
-332 115 0
-332 99 0
332 -115 -99 0
-142 -131 0
142 131 0
-333 116 0
-333 101 0
333 -116 -101 0
-143 -132 0
143 132 0
-334 117 0
-334 103 0
334 -117 -103 0
-144 -133 0
144 133 0
-328 111 0
-328 107 0
328 -111 -107 0
-136 -125 0
136 125 0
-278 -275 0
278 275 0
-167 -165 0
167 165 0
-236 -233 0
236 233 0
-168 -166 0
168 166 0
-376 245 0
-376 96 0
376 -245 -96 0
-251 -247 0
251 247 0
-329 112 0
-329 97 0
329 -112 -97 0
-138 -127 0
138 127 0
-355 184 0
-355 98 0
355 -184 -98 0
-200 -194 0
200 194 0
-330 113 0
-330 100 0
330 -113 -100 0
-140 -129 0
140 129 0
-394 287 0
-394 102 0
394 -287 -102 0
-293 -289 0
293 289 0
-151 -145 0
151 145 0
-84 -55 0
84 55 0
-285 -284 0
285 284 0
-286 -285 0
286 285 0
-181 -179 0
181 179 0
-183 -181 0
183 181 0
-243 -242 0
243 242 0
-244 -243 0
244 243 0
-180 -178 0
180 178 0
-85 -58 0
85 58 0
-86 -59 0
86 59 0
-87 -60 0
87 60 0
-88 -61 0
88 61 0
-89 -62 0
89 62 0
-118 -89 0
118 89 0
-56 -2 0
56 2 0
-90 -63 0
90 63 0
-119 -90 0
119 90 0
-299 -296 0
299 296 0
-303 -299 0
303 299 0
-158 -150 0
158 150 0
-164 -158 0
164 158 0
-211 -207 0
211 207 0
-217 -211 0
217 211 0
-156 -149 0
156 149 0
-163 -156 0
163 156 0
-257 -254 0
257 254 0
-262 -257 0
262 257 0
-57 -3 0
57 3 0
-301 -297 0
301 297 0
-154 -148 0
154 148 0
-162 -154 0
162 154 0
-203 -197 0
203 197 0
-209 -203 0
209 203 0
-91 -64 0
91 64 0
-120 -91 0
120 91 0
-92 -65 0
92 65 0
-93 -66 0
93 66 0
-122 -93 0
122 93 0
-298 -294 0
298 294 0
-213 -208 0
213 208 0
-218 -213 0
218 213 0
-259 -255 0
259 255 0
-256 -252 0
256 252 0
-205 -198 0
205 198 0
-210 -205 0
210 205 0
-347 142 0
-347 18 0
347 -142 -18 0
-348 143 0
-348 19 0
348 -143 -19 0
-349 144 0
-349 20 0
349 -144 -20 0
-393 278 0
-393 21 0
393 -278 -21 0
-279 -393 0
279 393 0
-351 167 0
-351 22 0
351 -167 -22 0
-169 -351 0
169 351 0
-375 236 0
-375 23 0
375 -236 -23 0
-237 -375 0
237 375 0
-352 168 0
-352 24 0
352 -168 -24 0
-171 -352 0
171 352 0
-416 326 0
-416 25 0
416 -326 -25 0
-94 -67 0
94 67 0
-350 151 0
-350 27 0
350 -151 -27 0
-95 -68 0
95 68 0
-396 293 0
-396 29 0
396 -293 -29 0
-300 -396 0
300 396 0
-345 140 0
-345 30 0
345 -140 -30 0
-159 -345 0
159 345 0
-359 200 0
-359 31 0
359 -200 -31 0
-212 -359 0
212 359 0
-344 138 0
-344 32 0
344 -138 -32 0
-157 -344 0
157 344 0
-378 251 0
-378 33 0
378 -251 -33 0
-258 -378 0
258 378 0
-67 -26 0
67 26 0
-69 -42 0
69 42 0
-70 -43 0
70 43 0
-71 -44 0
71 44 0
-72 -52 0
72 52 0
-73 -45 0
73 45 0
-74 -53 0
74 53 0
-75 -46 0
75 46 0
-76 -54 0
76 54 0
-77 -47 0
77 47 0
-78 -40 0
78 40 0
-79 -48 0
79 48 0
-80 -41 0
80 41 0
-81 -49 0
81 49 0
-82 -50 0
82 50 0
-228 -224 0
228 224 0
-83 -51 0
83 51 0
-318 -429 0
318 429 0
-321 -318 0
321 318 0
-306 -423 0
306 423 0
-309 -424 0
309 424 0
-310 -425 0
310 425 0
-311 -426 0
311 426 0
-124 -328 0
124 328 0
-125 -328 0
125 328 0
-304 -401 0
304 401 0
-126 -329 0
126 329 0
-127 -329 0
127 329 0
-264 -386 0
264 386 0
-128 -330 0
128 330 0
-129 -330 0
129 330 0
-130 -331 0
130 331 0
-131 -332 0
131 332 0
-132 -333 0
132 333 0
-216 -365 0
216 365 0
-133 -334 0
133 334 0
-271 -422 0
271 422 0
-148 -135 0
148 135 0
-149 -137 0
149 137 0
-265 -421 0
265 421 0
-269 -265 0
269 265 0
-150 -139 0
150 139 0
-146 -417 0
146 417 0
-152 -146 0
152 146 0
-145 -134 0
145 134 0
-221 -419 0
221 419 0
-225 -221 0
225 221 0
-147 -418 0
147 418 0
-153 -147 0
153 147 0
-270 -268 0
270 268 0
-165 -160 0
165 160 0
-273 -270 0
273 270 0
-166 -161 0
166 161 0
-227 -420 0
227 420 0
-231 -227 0
231 227 0
-226 -223 0
226 223 0
-175 -173 0
175 173 0
-230 -226 0
230 226 0
-176 -174 0
176 174 0
-179 -177 0
179 177 0
-320 -314 0
320 314 0
-313 -308 0
313 308 0
-319 -313 0
319 313 0
-185 -353 0
185 353 0
-123 -327 0
123 327 0
-186 -353 0
186 353 0
-187 -354 0
187 354 0
-188 -354 0
188 354 0
-193 -355 0
193 355 0
-194 -355 0
194 355 0
-195 -356 0
195 356 0
-222 -372 0
222 372 0
-196 -356 0
196 356 0
-197 -189 0
197 189 0
-198 -191 0
198 191 0
-207 -199 0
207 199 0
-208 -201 0
208 201 0
-280 -393 0
280 393 0
-170 -351 0
170 351 0
-238 -375 0
238 375 0
-172 -352 0
172 352 0
-267 -391 0
267 391 0
-233 -229 0
233 229 0
-240 -239 0
240 239 0
-242 -241 0
242 241 0
-246 -376 0
246 376 0
-247 -376 0
247 376 0
-248 -377 0
248 377 0
-249 -377 0
249 377 0
-254 -250 0
254 250 0
-255 -252 0
255 252 0
-405 118 0
-405 119 0
-405 299 0
405 -118 -119 -299 0
-307 -414 0
307 414 0
-387 89 0
-387 119 0
-387 257 0
387 -89 -119 -257 0
-383 218 0
-383 256 0
-383 210 0
383 -218 -256 -210 0
-275 -272 0
275 272 0
-402 298 0
-402 256 0
-402 210 0
402 -298 -256 -210 0
-403 298 0
-403 218 0
-403 210 0
403 -298 -218 -210 0
-282 -281 0
282 281 0
-284 -283 0
284 283 0
-367 118 0
-367 90 0
-367 211 0
367 -118 -90 -211 0
-288 -394 0
288 394 0
-407 299 0
-407 158 0
-407 211 0
-407 156 0
407 -299 -158 -211 -156 0
-289 -394 0
289 394 0
-290 -395 0
290 395 0
-291 -395 0
291 395 0
427 -121 0
427 -411 0
427 -389 0
-427 121 411 389 0
-296 -292 0
296 292 0
-297 -294 0
297 294 0
-399 56 0
-399 294 0
-399 218 0
399 -56 -294 -218 0
-325 -324 0
325 324 0
-55 -1 0
55 1 0
-58 -4 0
58 4 0
-59 -5 0
59 5 0
-60 -6 0
60 6 0
-61 -7 0
61 7 0
-62 -8 0
62 8 0
-63 -9 0
63 9 0
-64 -10 0
64 10 0
-65 -11 0
65 11 0
-66 -12 0
66 12 0
-68 -28 0
68 28 0
-224 -219 0
224 219 0
-260 -381 0
260 381 0
-274 -271 0
274 271 0
-314 -428 0
314 428 0
-215 -209 0
215 209 0
-404 84 0
-404 298 0
-404 218 0
404 -84 -298 -218 0
-374 56 0
-374 36 0
-374 218 0
374 -56 -36 -218 0
-388 257 0
-388 154 0
-388 203 0
-388 120 0
388 -257 -154 -203 -120 0
-776 569 0
-776 467 0
776 -569 -467 0
-588 -776 0
588 776 0
-790 623 0
-790 468 0
790 -623 -468 0
-637 -790 0
637 790 0
-833 728 0
-833 446 0
833 -728 -446 0
-735 -833 0
735 833 0
-793 635 0
-793 447 0
793 -635 -447 0
-647 -793 0
647 793 0
-815 686 0
-815 448 0
815 -686 -448 0
-694 -815 0
694 815 0
-791 625 0
-791 449 0
791 -625 -449 0
-639 -791 0
639 791 0
-779 574 0
-779 450 0
779 -574 -450 0
-615 -613 0
615 613 0
-538 -511 0
538 511 0
-544 -518 0
544 518 0
-540 -513 0
540 513 0
-678 -677 0
678 677 0
-529 -502 0
529 502 0
-545 -518 0
545 518 0
-530 -503 0
530 503 0
-617 -616 0
617 616 0
-531 -504 0
531 504 0
-546 -518 0
546 518 0
-533 -506 0
533 506 0
-720 -719 0
720 719 0
-535 -508 0
535 508 0
-665 -661 0
665 661 0
-757 -754 0
757 754 0
-745 -739 0
745 739 0
-748 -742 0
748 742 0
-749 -743 0
749 743 0
-750 -744 0
750 744 0
-738 -737 0
738 737 0
-699 -697 0
699 697 0
-696 -693 0
696 693 0
-653 -649 0
653 649 0
-710 -707 0
710 707 0
-705 -702 0
705 702 0
-593 -585 0
593 585 0
-662 -658 0
662 658 0
-594 -586 0
594 586 0
-709 -706 0
709 706 0
-668 -664 0
668 664 0
-667 -663 0
667 663 0
-756 -753 0
756 753 0
-755 -752 0
755 752 0
-567 -556 0
567 556 0
-622 -618 0
622 618 0
-727 -723 0
727 723 0
-634 -628 0
634 628 0
-685 -681 0
685 681 0
-624 -620 0
624 620 0
-568 -557 0
568 557 0
-714 -713 0
714 713 0
-716 -715 0
716 715 0
-606 -603 0
606 603 0
-610 -608 0
610 608 0
-672 -671 0
672 671 0
-674 -673 0
674 673 0
-607 -605 0
607 605 0
-611 -609 0
611 609 0
-683 -679 0
683 679 0
-570 -559 0
570 559 0
-632 -626 0
632 626 0
-572 -561 0
572 561 0
-725 -721 0
725 721 0
866 490 0
866 719 0
-866 -490 -719 0
-537 -510 0
537 510 0
864 490 0
864 616 0
-864 -490 -616 0
-539 -512 0
539 512 0
865 490 0
865 677 0
-865 -490 -677 0
-541 -514 0
541 514 0
863 490 0
863 613 0
-863 -490 -613 0
-542 -515 0
542 515 0
-547 -518 0
547 518 0
-543 -516 0
543 516 0
-548 -518 0
548 518 0
-532 -505 0
532 505 0
-549 -518 0
549 518 0
-534 -507 0
534 507 0
-550 -518 0
550 518 0
-536 -509 0
536 509 0
-652 -648 0
652 648 0
-554 -525 0
554 525 0
-830 489 0
-830 727 0
830 -489 -727 0
-801 489 0
-801 646 0
801 -489 -646 0
-812 489 0
-812 685 0
812 -489 -685 0
-795 489 0
-795 638 0
795 -489 -638 0
-823 695 0
-823 595 0
823 -695 -595 0
-768 490 0
-768 553 0
768 -490 -553 0
-769 490 0
-769 553 0
769 -490 -553 0
-770 490 0
-770 553 0
770 -490 -553 0
-771 490 0
-771 553 0
771 -490 -553 0
-824 695 0
-824 587 0
824 -695 -587 0
-804 650 0
-804 596 0
804 -650 -596 0
-805 650 0
-805 589 0
805 -650 -589 0
-846 736 0
-846 597 0
846 -736 -597 0
-847 736 0
-847 591 0
847 -736 -591 0
-844 591 0
-844 555 0
-844 838 0
844 -591 -555 -838 0
-831 727 0
-831 521 0
831 -727 -521 0
-802 646 0
-802 519 0
802 -646 -519 0
-813 685 0
-813 520 0
813 -685 -520 0
-796 517 0
-796 638 0
796 -517 -638 0
-825 676 0
-825 695 0
825 -676 -695 0
-772 490 0
-772 551 0
-772 552 0
-772 555 0
772 -490 -551 -552 -555 0
-773 490 0
-773 551 0
-773 523 0
-773 555 0
773 -490 -551 -523 -555 0
-799 489 0
-799 471 0
-799 643 0
799 -489 -471 -643 0
-797 489 0
-797 638 0
797 -489 -638 0
-806 614 0
-806 650 0
806 -614 -650 0
-848 718 0
-848 736 0
848 -718 -736 0
-822 587 0
-822 555 0
-822 820 0
822 -587 -555 -820 0
-839 521 0
-839 732 0
-839 591 0
-839 816 0
839 -521 -732 -591 -816 0
-841 519 0
-841 644 0
-841 589 0
-841 835 0
841 -519 -644 -589 -835 0
-842 520 0
-842 690 0
-842 587 0
-842 836 0
842 -520 -690 -587 -836 0
-843 689 0
-843 636 0
-843 837 0
843 -689 -636 -837 0
-817 689 0
-817 643 0
-817 807 0
817 -689 -643 -807 0
-818 489 0
-818 646 0
-818 689 0
-818 643 0
818 -489 -646 -689 -643 0
-774 490 0
-774 522 0
-774 552 0
-774 555 0
774 -490 -522 -552 -555 0
-775 490 0
-775 522 0
-775 523 0
-775 555 0
775 -490 -522 -523 -555 0
-803 589 0
-803 555 0
-803 800 0
803 -589 -555 -800 0
-794 522 0
-794 523 0
-794 636 0
-794 555 0
794 -522 -523 -636 -555 0
-845 840 0
-845 821 0
845 -840 -821 0
862 -803 0
862 -794 0
862 -845 0
862 -860 0
-862 803 794 845 860 0
856 -830 0
856 -831 0
856 -839 0
-856 830 831 839 0
857 -801 0
857 -802 0
857 -841 0
-857 801 802 841 0
858 -812 0
858 -813 0
858 -842 0
-858 812 813 842 0
859 -795 0
859 -796 0
859 -843 0
-859 795 796 843 0
-834 689 0
-834 643 0
-834 832 0
834 -689 -643 -832 0
-819 489 0
-819 646 0
-819 689 0
-819 643 0
819 -489 -646 -689 -643 0
-814 489 0
-814 685 0
-814 643 0
814 -489 -685 -643 0
-798 489 0
-798 638 0
798 -489 -638 0
855 -823 0
855 -825 0
-855 823 825 0
854 -768 0
854 -772 0
854 -817 0
-854 768 772 817 0
-850 -769 0
-850 -773 0
-850 -470 0
850 769 773 470 0
852 -770 0
852 -799 0
852 -774 0
-852 770 799 774 0
851 -771 0
851 -472 0
851 -775 0
-851 771 472 775 0
-701 -700 0
701 700 0
853 -804 0
853 -806 0
-853 804 806 0
-656 -655 0
656 655 0
861 -846 0
861 -848 0
-861 846 848 0
-741 -740 0
741 740 0
-760 524 0
-760 525 0
-760 526 0
760 -524 -525 -526 0
-786 615 0
-786 538 0
786 -615 -538 0
-623 -619 0
623 619 0
-759 -758 0
759 758 0
-828 866 0
-828 537 0
828 -866 -537 0
-728 -724 0
728 724 0
-789 864 0
-789 539 0
789 -864 -539 0
-635 -629 0
635 629 0
-810 865 0
-810 541 0
810 -865 -541 0
-686 -682 0
686 682 0
-787 863 0
-787 542 0
787 -863 -542 0
-625 -621 0
625 621 0
-764 547 0
-764 543 0
764 -547 -543 0
-574 -563 0
574 563 0
-765 548 0
-765 532 0
765 -548 -532 0
-575 -564 0
575 564 0
-766 549 0
-766 534 0
766 -549 -534 0
-576 -565 0
576 565 0
-767 550 0
-767 536 0
767 -550 -536 0
-577 -566 0
577 566 0
-761 544 0
-761 540 0
761 -544 -540 0
-569 -558 0
569 558 0
-711 -708 0
711 708 0
-600 -598 0
600 598 0
-669 -666 0
669 666 0
-601 -599 0
601 599 0
-809 678 0
-809 529 0
809 -678 -529 0
-684 -680 0
684 680 0
-762 545 0
-762 530 0
762 -545 -530 0
-571 -560 0
571 560 0
-788 617 0
-788 531 0
788 -617 -531 0
-633 -627 0
633 627 0
-763 546 0
-763 533 0
763 -546 -533 0
-573 -562 0
573 562 0
-827 720 0
-827 535 0
827 -720 -535 0
-726 -722 0
726 722 0
-584 -578 0
584 578 0
-517 -488 0
517 488 0
-718 -717 0
718 717 0
-719 -718 0
719 718 0
-614 -612 0
614 612 0
-616 -614 0
616 614 0
-676 -675 0
676 675 0
-677 -676 0
677 676 0
-613 -611 0
613 611 0
-518 -491 0
518 491 0
-519 -492 0
519 492 0
-520 -493 0
520 493 0
-521 -494 0
521 494 0
-522 -495 0
522 495 0
-551 -522 0
551 522 0
-489 -435 0
489 435 0
-523 -496 0
523 496 0
-552 -523 0
552 523 0
-732 -729 0
732 729 0
-736 -732 0
736 732 0
-591 -583 0
591 583 0
-597 -591 0
597 591 0
-644 -640 0
644 640 0
-650 -644 0
650 644 0
-589 -582 0
589 582 0
-596 -589 0
596 589 0
-690 -687 0
690 687 0
-695 -690 0
695 690 0
-490 -436 0
490 436 0
-734 -730 0
734 730 0
-587 -581 0
587 581 0
-595 -587 0
595 587 0
-636 -630 0
636 630 0
-642 -636 0
642 636 0
-524 -497 0
524 497 0
-553 -524 0
553 524 0
-525 -498 0
525 498 0
-526 -499 0
526 499 0
-555 -526 0
555 526 0
-731 -727 0
731 727 0
-646 -641 0
646 641 0
-651 -646 0
651 646 0
-692 -688 0
692 688 0
-689 -685 0
689 685 0
-638 -631 0
638 631 0
-643 -638 0
643 638 0
-780 575 0
-780 451 0
780 -575 -451 0
-781 576 0
-781 452 0
781 -576 -452 0
-782 577 0
-782 453 0
782 -577 -453 0
-826 711 0
-826 454 0
826 -711 -454 0
-712 -826 0
712 826 0
-784 600 0
-784 455 0
784 -600 -455 0
-602 -784 0
602 784 0
-808 669 0
-808 456 0
808 -669 -456 0
-670 -808 0
670 808 0
-785 601 0
-785 457 0
785 -601 -457 0
-604 -785 0
604 785 0
-849 759 0
-849 458 0
849 -759 -458 0
-527 -500 0
527 500 0
-783 584 0
-783 460 0
783 -584 -460 0
-528 -501 0
528 501 0
-829 726 0
-829 462 0
829 -726 -462 0
-733 -829 0
733 829 0
-778 573 0
-778 463 0
778 -573 -463 0
-592 -778 0
592 778 0
-792 633 0
-792 464 0
792 -633 -464 0
-645 -792 0
645 792 0
-777 571 0
-777 465 0
777 -571 -465 0
-590 -777 0
590 777 0
-811 684 0
-811 466 0
811 -684 -466 0
-691 -811 0
691 811 0
-500 -459 0
500 459 0
-502 -475 0
502 475 0
-503 -476 0
503 476 0
-504 -477 0
504 477 0
-505 -485 0
505 485 0
-506 -478 0
506 478 0
-507 -486 0
507 486 0
-508 -479 0
508 479 0
-509 -487 0
509 487 0
-510 -480 0
510 480 0
-511 -473 0
511 473 0
-512 -481 0
512 481 0
-513 -474 0
513 474 0
-514 -482 0
514 482 0
-515 -483 0
515 483 0
-661 -657 0
661 657 0
-516 -484 0
516 484 0
-751 -862 0
751 862 0
-754 -751 0
754 751 0
-739 -856 0
739 856 0
-742 -857 0
742 857 0
-743 -858 0
743 858 0
-744 -859 0
744 859 0
-557 -761 0
557 761 0
-558 -761 0
558 761 0
-737 -834 0
737 834 0
-559 -762 0
559 762 0
-560 -762 0
560 762 0
-697 -819 0
697 819 0
-561 -763 0
561 763 0
-562 -763 0
562 763 0
-563 -764 0
563 764 0
-564 -765 0
564 765 0
-565 -766 0
565 766 0
-649 -798 0
649 798 0
-566 -767 0
566 767 0
-704 -855 0
704 855 0
-581 -568 0
581 568 0
-582 -570 0
582 570 0
-698 -854 0
698 854 0
-702 -698 0
702 698 0
-583 -572 0
583 572 0
-579 -850 0
579 850 0
-585 -579 0
585 579 0
-578 -567 0
578 567 0
-654 -852 0
654 852 0
-658 -654 0
658 654 0
-580 -851 0
580 851 0
-586 -580 0
586 580 0
-703 -701 0
703 701 0
-598 -593 0
598 593 0
-706 -703 0
706 703 0
-599 -594 0
599 594 0
-660 -853 0
660 853 0
-664 -660 0
664 660 0
-659 -656 0
659 656 0
-608 -606 0
608 606 0
-663 -659 0
663 659 0
-609 -607 0
609 607 0
-612 -610 0
612 610 0
-753 -747 0
753 747 0
-746 -741 0
746 741 0
-752 -746 0
752 746 0
-618 -786 0
618 786 0
-556 -760 0
556 760 0
-619 -786 0
619 786 0
-620 -787 0
620 787 0
-621 -787 0
621 787 0
-626 -788 0
626 788 0
-627 -788 0
627 788 0
-628 -789 0
628 789 0
-655 -805 0
655 805 0
-629 -789 0
629 789 0
-630 -622 0
630 622 0
-631 -624 0
631 624 0
-640 -632 0
640 632 0
-641 -634 0
641 634 0
-713 -826 0
713 826 0
-603 -784 0
603 784 0
-671 -808 0
671 808 0
-605 -785 0
605 785 0
-700 -824 0
700 824 0
-666 -662 0
666 662 0
-673 -672 0
673 672 0
-675 -674 0
675 674 0
-679 -809 0
679 809 0
-680 -809 0
680 809 0
-681 -810 0
681 810 0
-682 -810 0
682 810 0
-687 -683 0
687 683 0
-688 -685 0
688 685 0
-838 551 0
-838 552 0
-838 732 0
838 -551 -552 -732 0
-740 -847 0
740 847 0
-820 522 0
-820 552 0
-820 690 0
820 -522 -552 -690 0
-816 651 0
-816 689 0
-816 643 0
816 -651 -689 -643 0
-708 -705 0
708 705 0
-835 731 0
-835 689 0
-835 643 0
835 -731 -689 -643 0
-836 731 0
-836 651 0
-836 643 0
836 -731 -651 -643 0
-715 -714 0
715 714 0
-717 -716 0
717 716 0
-800 551 0
-800 523 0
-800 644 0
800 -551 -523 -644 0
-721 -827 0
721 827 0
-840 732 0
-840 591 0
-840 644 0
-840 589 0
840 -732 -591 -644 -589 0
-722 -827 0
722 827 0
-723 -828 0
723 828 0
-724 -828 0
724 828 0
860 -554 0
860 -844 0
860 -822 0
-860 554 844 822 0
-729 -725 0
729 725 0
-730 -727 0
730 727 0
-832 489 0
-832 727 0
-832 651 0
832 -489 -727 -651 0
-758 -757 0
758 757 0
-488 -434 0
488 434 0
-491 -437 0
491 437 0
-492 -438 0
492 438 0
-493 -439 0
493 439 0
-494 -440 0
494 440 0
-495 -441 0
495 441 0
-496 -442 0
496 442 0
-497 -443 0
497 443 0
-498 -444 0
498 444 0
-499 -445 0
499 445 0
-501 -461 0
501 461 0
-657 -652 0
657 652 0
-693 -814 0
693 814 0
-707 -704 0
707 704 0
-747 -861 0
747 861 0
-648 -642 0
648 642 0
-837 517 0
-837 731 0
-837 651 0
837 -517 -731 -651 0
-807 489 0
-807 469 0
-807 651 0
807 -489 -469 -651 0
-821 690 0
-821 587 0
-821 636 0
-821 553 0
821 -690 -587 -636 -553 0
-434 1 0
434 -1 0
-442 9 0
442 -9 0
-443 10 0
443 -10 0
-444 11 0
444 -11 0
-445 12 0
445 -12 0
-446 13 0
446 -13 0
-447 14 0
447 -14 0
-448 15 0
448 -15 0
-449 16 0
449 -16 0
-450 17 0
450 -17 0
-451 18 0
451 -18 0
-435 2 0
435 -2 0
-452 19 0
452 -19 0
-453 20 0
453 -20 0
-454 21 0
454 -21 0
-455 22 0
455 -22 0
-456 23 0
456 -23 0
-457 24 0
457 -24 0
-458 25 0
458 -25 0
-459 26 0
459 -26 0
-460 27 0
460 -27 0
-461 28 0
461 -28 0
-436 3 0
436 -3 0
-462 29 0
462 -29 0
-463 30 0
463 -30 0
-464 31 0
464 -31 0
-465 32 0
465 -32 0
-466 33 0
466 -33 0
-467 34 0
467 -34 0
-468 35 0
468 -35 0
-437 4 0
437 -4 0
-438 5 0
438 -5 0
-439 6 0
439 -6 0
-469 36 0
469 -36 0
-470 37 0
470 -37 0
-471 38 0
471 -38 0
-472 39 0
472 -39 0
-473 40 0
473 -40 0
-474 41 0
474 -41 0
-475 42 0
475 -42 0
-476 43 0
476 -43 0
-477 44 0
477 -44 0
-478 45 0
478 -45 0
-479 46 0
479 -46 0
-480 47 0
480 -47 0
-481 48 0
481 -48 0
-482 49 0
482 -49 0
-483 50 0
483 -50 0
-484 51 0
484 -51 0
-440 7 0
440 -7 0
-485 52 0
485 -52 0
-486 53 0
486 -53 0
-487 54 0
487 -54 0
-441 8 0
441 -8 0
588 155 -867 0
588 -155 867 0
-588 155 867 0
-588 -155 -867 0
637 204 -868 0
637 -204 868 0
-637 204 868 0
-637 -204 -868 0
735 302 -869 0
735 -302 869 0
-735 302 869 0
-735 -302 -869 0
647 214 -870 0
647 -214 870 0
-647 214 870 0
-647 -214 -870 0
694 261 -871 0
694 -261 871 0
-694 261 871 0
-694 -261 -871 0
639 206 -872 0
639 -206 872 0
-639 206 872 0
-639 -206 -872 0
779 346 -873 0
779 -346 873 0
-779 346 873 0
-779 -346 -873 0
709 276 -874 0
709 -276 874 0
-709 276 874 0
-709 -276 -874 0
780 347 -875 0
780 -347 875 0
-780 347 875 0
-780 -347 -875 0
781 348 -876 0
781 -348 876 0
-781 348 876 0
-781 -348 -876 0
782 349 -877 0
782 -349 877 0
-782 349 877 0
-782 -349 -877 0
712 279 -878 0
712 -279 878 0
-712 279 878 0
-712 -279 -878 0
602 169 -879 0
602 -169 879 0
-602 169 879 0
-602 -169 -879 0
670 237 -880 0
670 -237 880 0
-670 237 880 0
-670 -237 -880 0
604 171 -881 0
604 -171 881 0
-604 171 881 0
-604 -171 -881 0
849 416 -882 0
849 -416 882 0
-849 416 882 0
-849 -416 -882 0
527 94 -883 0
527 -94 883 0
-527 94 883 0
-527 -94 -883 0
783 350 -884 0
783 -350 884 0
-783 350 884 0
-783 -350 -884 0
528 95 -885 0
528 -95 885 0
-528 95 885 0
-528 -95 -885 0
733 300 -886 0
733 -300 886 0
-733 300 886 0
-733 -300 -886 0
592 159 -887 0
592 -159 887 0
-592 159 887 0
-592 -159 -887 0
645 212 -888 0
645 -212 888 0
-645 212 888 0
-645 -212 -888 0
590 157 -889 0
590 -157 889 0
-590 157 889 0
-590 -157 -889 0
691 258 -890 0
691 -258 890 0
-691 258 890 0
-691 -258 -890 0
867 868 869 870 871 872 873 874 875 876 877 878 879 880 881 882 883 884 885 886 887 888 889 890 0
